Route #1: 105 19 188 57 63 172 163 128 95 34 4 102 103 108 129 156 133 72 88 165 1 149 160 182 83 29
Route #2: 73 112 25 183 136 167 125 86 12 24 143 97 147 150 78 169 80 85 138 159 28 58 43 10
Route #3: 176 5 47 101 52 71 123 177 148 153 180 61 32 40 76 185 18 84 98 141 70 181 126 54 174 151 137
Route #4: 142 30 39 36 22 77 146 186 87 152 41 48 38 2 6 35 109 89 104 81 92 135 46
Route #5: 145 21 178 69 55 90 15 124 187 27 3 96 59 91 113 111 23 164 158 94 144 115
Route #6: 9 114 65 20 53 140 189 154 162 33 107 7 155 17 82 122 60 116 79 11 175
Route #7: 139 67 51 93 75 121 50 68 130 56 8 100 42 62 179 74 161 134 132 173 157 166 117 49 26 170 16 14
Route #8: 37 118 131 106 119 99 45 31 184 127 44 168 120 13 171 110 66 64
Cost 18249
